n_res = 5;
n_events = 102;
n_prec = 278;
source = 1;
sink = 102;
min_lvl = [2, -6, -8, -12, -21];
max_lvl = [20, 12, 12, 7, -2];
rr = [| 0, 0, -1, 0, 2, 2, -2, -1, 0, 2, 0, 0, 1, -2, 2, 0, -2, 1, -1, 2, -1, 1, 0, -2, 2, 2, 1, 2, -2, 1, 0, 1, -1, 0, 1, 0, -2, 0, 0, 0, 1, 2, -2, -1, 1, -2, 2, -1, 0, 1, 2, 2, 0, -1, 0, 1, 0, 2, -1, -1, -2, -1, -1, 0, 2, 0, -2, 2, -1, -1, -2, 0, 0, 1, -1, 1, 0, -1, 0, -1, 2, -2, 2, 0, -2, 0, 0, 0, 1, 0, 2, -1, 0, 2, 0, -1, 0, 0, 0, 1, -2, 0
      | 0, -1, 0, 0, 1, -1, -2, -1, 1, 0, 1, -2, 0, 0, -1, 1, 0, 2, 0, 2, 0, 0, 0, 0, 0, -1, -1, 1, 1, 0, 0, -2, 0, 0, -2, 0, -2, 1, 0, 0, 0, 2, 0, 0, 0, 2, 1, 0, 1, 0, 2, 0, 0, 1, 2, 1, 0, 2, -2, 0, -2, -1, -2, 1, 0, -2, 0, 1, 0, 0, 1, -2, -2, 1, -2, -1, 0, -2, -1, -2, -1, 2, 2, 0, 2, 2, 0, 0, 2, 0, 2, 2, 0, 0, -2, -1, 2, 1, 0, 0, -1, 0
      | 0, -1, 0, 0, 2, -1, 0, 1, 1, -2, 0, 0, -2, 1, 0, 0, -1, 0, 0, 0, -2, 0, 0, 0, 2, -1, 0, 0, 2, 2, 0, 1, 2, 0, -2, 0, -2, 0, -2, 0, -2, 1, 0, 0, -2, 2, 0, -2, -1, 0, 0, -2, 2, 0, -1, 2, -2, 0, 0, 0, -1, 1, -1, 0, 0, 0, 0, 1, 0, -1, 1, 0, 0, 2, 1, 0, -1, 0, -1, 0, 1, 2, 1, 0, 1, 0, 2, -1, 1, 2, 2, -1, -1, 0, 2, 0, 2, 1, 0, 0, 1, 0
      | 0, 0, -1, 1, 0, -1, 2, -2, 2, 0, 0, 0, 0, 0, -1, 0, -1, 0, 0, 0, 1, 1, 1, -1, 1, 1, 0, 1, 0, 0, 1, -1, -2, 0, 0, 0, 0, -1, 0, 2, 0, 0, -1, 0, 0, -2, -1, 2, 0, -2, -1, -2, 1, 2, 0, -1, -1, 1, 1, 0, 1, -1, 2, -2, 2, 0, 1, -1, 0, 0, 2, 0, 1, -2, 0, -1, -2, 2, -1, -2, -1, -2, -2, 0, -1, -1, 2, -2, 1, 0, -1, -2, 0, 1, -2, -1, 0, 0, 0, -1, 2, 0
      | 0, 0, 0, 0, 0, 0, -1, -2, -1, 0, 2, 0, 0, -2, 0, 0, 0, -1, -1, 0, 2, -2, 0, 2, 0, -1, 0, -2, 0, 0, 0, 2, 0, -2, 1, -1, 0, 2, 0, 0, 0, -1, -1, 1, 0, 1, -2, 2, -1, 0, -2, 2, -1, -2, -1, -1, 0, 0, -1, -2, 0, -2, -1, 1, 0, 0, -1, -1, 0, 2, 2, 2, 0, -2, -2, -2, -1, 0, 0, -2, -1, 0, 1, 2, -2, 0, 0, 0, 1, 0, 0, -2, 0, 0, 1, 0, 0, 2, -2, 0, 0, 0 |];
prec = [| 1, 0, 5
        | 1, 0, 3
        | 1, 0, 2
        | 1, 0, 4
        | 1, 0, 6
        | 1, 0, 7
        | 2, 1, 62
        | 2, 0, 95
        | 2, 2, 39
        | 2, 1, 78
        | 2, 1, 52
        | 2, 1, 36
        | 3, 5, 19
        | 3, 4, 94
        | 3, -2, 41
        | 3, 0, 82
        | 3, 14, 69
        | 4, 13, 48
        | 4, 15, 59
        | 4, 6, 38
        | 5, 6, 45
        | 5, -3, 26
        | 6, -9, 77
        | 6, 3, 81
        | 7, -1, 100
        | 7, 7, 10
        | 8, 3, 25
        | 9, -1, 13
        | 10, 1, 47
        | 11, 2, 65
        | 11, 18, 41
        | 11, 18, 17
        | 11, -5, 44
        | 11, 10, 49
        | 12, 12, 73
        | 13, 0, 65
        | 13, -2, 82
        | 13, 13, 41
        | 13, 2, 14
        | 14, 3, 76
        | 14, -1, 97
        | 14, -2, 82
        | 14, -1, 57
        | 14, 9, 65
        | 15, -51, 48
        | 15, -4, 63
        | 16, 9, 8
        | 16, -6, 91
        | 16, -5, 89
        | 16, -3, 46
        | 17, 1, 96
        | 17, 0, 33
        | 17, 0, 41
        | 17, 1, 57
        | 18, 14, 64
        | 18, 4, 96
        | 19, 0, 94
        | 20, -3, 62
        | 21, 0, 73
        | 21, 1, 99
        | 21, -23, 74
        | 21, 2, 24
        | 22, 7, 40
        | 22, 17, 49
        | 22, 7, 9
        | 22, 0, 28
        | 22, 1, 37
        | 23, 27, 60
        | 23, 25, 11
        | 23, 14, 97
        | 23, 7, 76
        | 23, -2, 38
        | 24, 13, 75
        | 24, -3, 12
        | 24, 14, 56
        | 24, 10, 55
        | 25, 8, 28
        | 25, 24, 77
        | 25, -142, 81
        | 25, -103, 68
        | 26, -1, 67
        | 27, 11, 87
        | 28, -5, 93
        | 28, 14, 31
        | 29, 2, 21
        | 29, 1, 42
        | 30, 0, 31
        | 30, 2, 8
        | 31, 7, 93
        | 32, 16, 80
        | 32, 24, 57
        | 32, 5, 35
        | 33, 0, 38
        | 33, 2, 57
        | 34, 15, 90
        | 34, 17, 77
        | 35, -4, 76
        | 36, -6, 39
        | 37, 3, 95
        | 38, 4, 13
        | 38, 0, 9
        | 38, 6, 65
        | 39, -4, 95
        | 39, 11, 62
        | 39, 7, 52
        | 40, 8, 54
        | 40, -19, 22
        | 40, 12, 43
        | 41, 10, 102
        | 41, -8, 97
        | 41, -95, 3
        | 42, 3, 72
        | 42, 0, 74
        | 43, 16, 62
        | 43, -7, 14
        | 43, 18, 11
        | 44, 26, 17
        | 45, 14, 70
        | 45, 17, 57
        | 45, -4, 26
        | 45, 1, 67
        | 46, 0, 91
        | 47, 11, 23
        | 47, 10, 17
        | 48, 0, 28
        | 48, 10, 72
        | 48, 14, 15
        | 48, -35, 4
        | 48, -2, 70
        | 49, -2, 54
        | 49, 11, 97
        | 49, -58, 14
        | 49, 0, 41
        | 49, -53, 65
        | 49, 0, 82
        | 50, 4, 29
        | 50, 3, 98
        | 51, -1, 84
        | 51, 10, 80
        | 51, -4, 47
        | 52, -1, 20
        | 52, 0, 95
        | 52, 8, 37
        | 53, 4, 68
        | 54, -120, 11
        | 54, -6, 41
        | 54, 13, 82
        | 54, -6, 97
        | 55, 10, 79
        | 55, -17, 73
        | 55, 9, 98
        | 56, -48, 24
        | 56, 11, 71
        | 56, -43, 85
        | 56, -28, 72
        | 57, -150, 61
        | 57, -152, 70
        | 57, 3, 96
        | 58, 17, 92
        | 58, 5, 76
        | 58, 18, 35
        | 58, 17, 85
        | 58, 18, 83
        | 59, 5, 56
        | 60, -1, 95
        | 60, 0, 86
        | 60, 1, 13
        | 60, 12, 57
        | 61, 0, 58
        | 61, 1, 73
        | 62, 12, 37
        | 63, 1, 51
        | 64, 11, 70
        | 64, 8, 96
        | 64, 0, 88
        | 64, 9, 35
        | 64, -2, 76
        | 65, 6, 49
        | 65, -61, 13
        | 66, 3, 101
        | 66, 3, 89
        | 66, 2, 53
        | 67, 22, 92
        | 67, 8, 18
        | 67, -9, 45
        | 67, -13, 5
        | 68, 0, 101
        | 68, 6, 16
        | 69, 0, 19
        | 69, 0, 94
        | 70, 0, 80
        | 70, 12, 32
        | 71, -2, 98
        | 71, -35, 59
        | 71, 1, 73
        | 71, -47, 24
        | 71, 3, 12
        | 72, 2, 59
        | 72, 0, 98
        | 73, 9, 99
        | 73, 11, 55
        | 74, 21, 21
        | 74, -2, 71
        | 74, -3, 29
        | 75, 11, 85
        | 75, 1, 12
        | 76, 13, 96
        | 76, 0, 80
        | 77, 7, 27
        | 77, -83, 90
        | 77, -139, 30
        | 77, 2, 28
        | 78, 11, 95
        | 78, 0, 36
        | 79, 7, 102
        | 79, 0, 98
        | 80, 5, 96
        | 80, 10, 57
        | 81, 0, 101
        | 81, 11, 66
        | 81, -3, 90
        | 81, 2, 25
        | 82, 9, 97
        | 82, 3, 41
        | 82, -62, 65
        | 83, 0, 50
        | 83, 11, 12
        | 84, -35, 15
        | 84, 18, 74
        | 84, 10, 61
        | 84, 8, 58
        | 84, -41, 63
        | 84, -28, 48
        | 85, 6, 71
        | 85, -42, 24
        | 85, 2, 72
        | 86, -55, 23
        | 86, -57, 7
        | 86, -58, 47
        | 86, 21, 22
        | 87, -4, 28
        | 87, -157, 34
        | 87, -106, 25
        | 88, -79, 64
        | 88, 15, 70
        | 88, 18, 35
        | 89, 9, 34
        | 89, 16, 77
        | 89, -4, 87
        | 89, 16, 46
        | 89, 16, 25
        | 89, 8, 30
        | 89, 20, 90
        | 90, 1, 46
        | 90, 3, 25
        | 91, -96, 81
        | 91, -7, 87
        | 91, 16, 30
        | 91, 18, 27
        | 92, 18, 88
        | 92, -5, 18
        | 92, -1, 80
        | 93, -38, 22
        | 93, -34, 31
        | 93, 10, 102
        | 94, 10, 102
        | 95, 8, 102
        | 96, 5, 102
        | 97, -117, 65
        | 97, -64, 49
        | 97, 5, 102
        | 98, 1, 102
        | 98, -25, 73
        | 98, -27, 79
        | 98, -23, 55
        | 99, 10, 102
        | 100, 4, 102
        | 101, 8, 102 |];
